__gmon_start__
_init
_fini
_ITM_deregisterTMCloneTable
_ITM_registerTMCloneTable
__cxa_finalize
_Jv_RegisterClasses
go_plugin_header
go_plugin_depends
gnm_sub_solver_clear
g_unlink
gnm_solver_get_type
g_type_check_instance_cast
gnm_push_C_locale
gsf_input_stdio_new
gsf_input_textline_get_type
gsf_input_textline_new
g_object_unref
gnm_solver_result_get_type
g_object_new
g_malloc0_n
gsf_input_textline_utf8_gets
__isoc99_sscanf
gnm_solver_set_status
gnm_pop_C_locale
g_hash_table_size
g_object_set
gnm_sub_solver_get_type
g_return_if_fail_warning
gnm_conf_get_plugin_glpk_glpsol_path
gnm_sub_solver_spawn
g_spawn_error_quark
g_error_matches
g_clear_error
g_dgettext
g_set_error
g_unsetenv
g_getenv
g_setenv
go_file_saver_for_mime_type
gnm_solver_saveas
g_file_open_tmp
close
g_file_error_quark
glpk_solver_factory_functional
g_find_program_in_path
gnm_sub_solver_locate_binary
gnm_conf_set_plugin_glpk_glpsol_path
g_file_test
glpk_solver_factory
g_malloc0
g_signal_connect_data
g_object_set_data_full
gnm_sub_solver_get_cell_name
gnm_solver_set_vars
gnm_cell_eval
value_get_as_float
gnm_solver_get_lp_coeffs
g_string_append
gnm_string_add_number
g_string_insert_c
glpk_file_save
g_object_get_data
go_io_progress_message
g_string_new
gnm_solver_param_get_target_cell
g_strdup_printf
gnm_sub_solver_name_cell
g_slist_length
go_io_count_progress_set
gnm_solver_save_vars
gnm_solver_pick_lp_coords
go_io_count_progress_update
g_string_append_printf
g_assertion_message_expr
gnm_solver_constraint_get_part
go_string_append_gstring
g_string_free
gnm_solver_restore_vars
gnm_app_recalc
gsf_output_write
go_io_progress_unset
g_error_free
go_error_invalid
go_cmd_context_get_type
go_cmd_context_error_import
libm.so.6
libc.so.6
__stack_chk_fail
_edata
__bss_start
_end
glpk.so
GLIBC_2.0
GLIBC_2.7
GLIBC_2.1.3
GLIBC_2.4
UWVS
D$|1
D$|e3
[^_]
L$,t
;D$P
;t$LwX
t$41
;|$PsQ
UWVS
D$\1
|$\e3=
d$l[^_]
UWVS
D$<1
D$<e3
d$L[^_]
UWVS
d$,1
[^_]
[^_]
d$,1
[^_]
D$X1
[^_]
[^_]
UWVS
D$le
l$4f
[^_]
munG
goffice
gnumeric
%u %u
%d %d %lg
%u %lg %lg
result
glpsol
--scale
--noscale
--write
--cpxlp
gnumeric-1.12.23
LC_ALL
LC_MESSAGES
LC_CTYPE
LC_NUMERIC
LANG
program-XXXXXX.cplex
program-XXXXXX.out
application/glpk
Gnu Linear Programming Kit
params
prepare
start
stop
child-exit
::glpk::
The %s program was not found.  You can either install it or use another solver. For more information see %s
http://www.gnu.org/software/glpk/
sol->status == GNM_SOLVER_STATUS_PREPARED
The GLPK exporter is not available.
Failed to create file for solution
sol->status == GNM_SOLVER_STATUS_READY
sol->status != GNM_SOLVER_STATUS_RUNNING
gnm_glpk_prepare
gnm_glpk_start
gnm_glpk_stop
solver
Writing glpk file...
X_%u
Minimize
Maximize
glpk-write.c
 obj: 
 %s >= 0
\ Created by Gnumeric %s
Subject to
General
Binary
Only linear programs are handled.
glpk_create_program
;*2$"(
glpk.so.debug
7zXZ
q*o%
,ix6
s|v`J
30G1*
FEMm
nSr~u
c4E#
G:%w
.shstrtab
.note.gnu.build-id
.gnu.hash
.dynsym
.dynstr
.gnu.version
.gnu.version_r
.rel.dyn
.rel.plt
.init
.text
.fini
.rodata
.eh_frame_hdr
.eh_frame
.init_array
.fini_array
.jcr
.data.rel.ro
.dynamic
.got
.bss
.gnu_debuglink
.gnu_debugdata
